192
1056.0 1282.0 
1019.0 1026.0 
1125.0 1091.0 
947.0 864.0 
853.0 834.0 
861.0 766.0 
947.0 864.0 
900.0 806.0 
814.0 708.0 
963.0 1050.0 
1056.0 1282.0 
1056.0 1282.0 
1019.0 1026.0 
1019.0 1026.0 
1006.0 1070.0 
947.0 864.0 
853.0 834.0 
947.0 864.0 
900.0 806.0 
1113.0 1303.0 
1056.0 1282.0 
1113.0 1303.0 
1019.0 1026.0 
1019.0 1026.0 
947.0 864.0 
853.0 834.0 
900.0 806.0 
814.0 708.0 
947.0 864.0 
1056.0 1282.0 
1154.0 1040.0 
947.0 864.0 
853.0 834.0 
947.0 864.0 
900.0 806.0 
963.0 1050.0 
1056.0 1282.0 
1113.0 1303.0 
1019.0 1026.0 
1019.0 1026.0 
947.0 864.0 
853.0 834.0 
947.0 864.0 
900.0 806.0 
1056.0 1282.0 
1056.0 1282.0 
1000.0 1089.0 
947.0 864.0 
853.0 834.0 
947.0 864.0 
900.0 806.0 
1056.0 1282.0 
1056.0 1282.0 
1113.0 1303.0 
1019.0 1026.0 
947.0 864.0 
853.0 834.0 
856.0 825.0 
947.0 864.0 
900.0 806.0 
1056.0 1282.0 
990.0 1095.0 
990.0 1095.0 
979.0 1054.0 
979.0 1054.0 
1094.0 1126.0 
947.0 864.0 
853.0 834.0 
900.0 806.0 
947.0 864.0 
1056.0 1282.0 
1056.0 1282.0 
1154.0 1040.0 
947.0 864.0 
853.0 834.0 
947.0 864.0 
900.0 806.0 
963.0 1050.0 
1056.0 1282.0 
1056.0 1282.0 
962.0 1037.0 
1019.0 1026.0 
1019.0 1026.0 
947.0 864.0 
853.0 834.0 
861.0 766.0 
947.0 864.0 
900.0 806.0 
814.0 708.0 
937.0 956.0 
1056.0 1282.0 
1056.0 1282.0 
1113.0 1303.0 
963.0 1050.0 
963.0 1050.0 
900.0 892.0 
947.0 864.0 
853.0 834.0 
947.0 864.0 
900.0 806.0 
1056.0 1282.0 
1056.0 1282.0 
962.0 1037.0 
962.0 1037.0 
937.0 956.0 
937.0 956.0 
900.0 892.0 
947.0 864.0 
853.0 834.0 
947.0 864.0 
900.0 806.0 
963.0 1050.0 
900.0 892.0 
947.0 864.0 
853.0 834.0 
947.0 864.0 
900.0 806.0 
1056.0 1282.0 
1056.0 1282.0 
1056.0 1282.0 
963.0 1050.0 
900.0 892.0 
947.0 864.0 
853.0 834.0 
947.0 864.0 
900.0 806.0 
1049.0 1293.0 
1115.0 1359.0 
1029.0 1261.0 
1029.0 1261.0 
1049.0 1293.0 
1115.0 1359.0 
1160.0 1298.0 
1160.0 1298.0 
1160.0 1298.0 
1160.0 1298.0 
1160.0 1298.0 
1160.0 1298.0 
1033.0 842.0 
1147.0 928.0 
1056.0 1282.0 
1056.0 1282.0 
963.0 1050.0 
963.0 1050.0 
900.0 892.0 
853.0 834.0 
861.0 766.0 
947.0 864.0 
900.0 806.0 
814.0 708.0 
1056.0 1282.0 
1056.0 1282.0 
962.0 1037.0 
962.0 1037.0 
937.0 956.0 
937.0 956.0 
900.0 892.0 
947.0 864.0 
853.0 834.0 
947.0 864.0 
900.0 806.0 
1056.0 1282.0 
1056.0 1282.0 
962.0 1037.0 
937.0 956.0 
900.0 892.0 
853.0 834.0 
947.0 864.0 
900.0 806.0 
1056.0 1282.0 
1056.0 1282.0 
1113.0 1303.0 
1113.0 1303.0 
853.0 834.0 
947.0 864.0 
900.0 806.0 
963.0 1050.0 
1035.0 1034.0 
1044.0 1284.0 
1018.0 1232.0 
1115.0 1359.0 
1029.0 1261.0 
1049.0 1293.0 
1049.0 1293.0 
1029.0 1261.0 
1025.0 1219.0 
1025.0 1219.0 
1019.0 1026.0 
853.0 834.0 
1147.0 928.0 
947.0 864.0 
900.0 806.0 

0 321 477 78 489 80 81 478 116 470 469 467 183 471 473 446 494 493 475 84 82 484 0 
0 321 484 477 78 489 80 81 478 116 470 467 469 472 183 471 493 475 479 0 
0 321 477 78 489 80 478 116 470 467 469 471 445 443 438 182 208 459 457 0 
0 321 484 477 78 489 80 82 84 479 480 51 90 91 89 87 0 
0 321 484 477 78 489 80 82 84 479 480 51 90 89 159 0 
0 484 477 78 489 80 82 84 479 480 51 90 91 89 87 0 
0 321 484 477 78 489 80 82 84 479 480 51 90 91 89 87 0 
0 321 484 477 78 489 80 82 84 479 480 51 90 89 87 0 
0 484 477 78 489 80 82 84 479 480 51 90 89 87 0 
0 321 477 78 489 80 478 116 470 469 467 472 183 471 493 475 84 82 484 0 
0 321 477 78 489 80 81 478 116 470 467 469 183 471 473 446 494 493 475 84 82 484 0 
0 321 477 78 489 80 81 478 116 470 469 467 183 471 473 446 494 493 475 84 82 484 0 
0 321 484 477 78 489 80 81 478 116 470 469 467 472 183 471 493 475 479 0 
0 321 484 477 78 489 80 81 478 116 470 469 467 472 183 471 493 475 479 0 
0 479 84 475 494 493 473 471 183 472 467 469 470 116 478 80 78 477 321 0 
0 321 484 477 78 489 80 82 84 479 480 51 90 91 89 87 0 
0 321 484 477 78 489 80 82 84 479 480 51 90 89 159 0 
0 321 484 477 78 489 80 82 84 479 480 51 90 91 89 87 0 
0 321 484 477 78 489 80 82 84 479 480 51 90 89 87 0 
0 321 484 477 78 489 80 478 116 470 467 469 183 471 473 446 494 493 475 82 84 479 0 
0 321 477 78 489 80 81 478 116 470 469 467 183 471 473 446 494 493 475 84 82 484 0 
0 321 484 477 78 489 80 478 116 470 469 467 183 471 473 446 494 493 475 82 84 479 0 
0 321 484 477 78 489 80 81 478 116 470 469 467 472 183 471 493 475 479 0 
0 321 484 477 78 489 80 81 478 116 470 469 467 472 183 471 493 475 479 0 
0 321 484 477 78 489 80 82 84 479 480 51 90 91 89 87 0 
0 321 484 477 78 489 80 82 84 479 480 51 90 89 159 0 
0 321 484 477 78 489 80 82 84 479 480 51 90 89 87 0 
0 484 477 78 489 80 82 84 479 480 51 90 89 87 0 
0 321 484 477 78 489 80 82 84 479 480 51 90 91 89 87 0 
0 321 477 78 489 80 81 478 116 470 469 467 183 471 473 446 494 493 475 84 82 484 0 
0 321 477 78 489 478 116 470 467 469 183 471 473 208 182 459 457 480 0 
0 321 484 477 78 489 80 82 84 479 480 51 90 91 89 87 0 
0 321 484 477 78 489 80 82 84 479 480 51 90 89 159 0 
0 321 484 477 78 489 80 82 84 479 480 51 90 91 89 87 0 
0 321 484 477 78 489 80 82 84 479 480 51 90 89 87 0 
0 321 477 78 489 80 478 116 470 469 467 472 183 471 493 475 84 82 484 0 
0 321 477 78 489 80 81 478 116 470 469 467 183 471 473 446 494 493 475 84 82 484 0 
0 321 484 477 78 489 80 478 116 470 469 467 183 471 473 446 494 493 475 82 84 479 0 
0 321 484 477 78 489 80 81 478 116 470 469 467 472 183 471 493 475 479 0 
0 321 484 477 78 489 80 81 478 116 470 469 467 472 183 471 493 475 479 0 
0 321 484 477 78 489 80 82 84 479 480 51 90 91 89 87 0 
0 321 484 477 78 489 80 82 84 479 480 51 90 89 159 0 
0 321 484 477 78 489 80 82 84 479 480 51 90 91 89 87 0 
0 321 484 477 78 489 80 82 84 479 480 51 90 89 87 0 
0 321 477 78 489 80 81 478 116 470 469 467 183 471 473 446 494 493 475 84 82 484 0 
0 321 477 78 489 80 81 478 116 470 467 469 183 471 473 446 494 493 475 84 82 484 0 
0 321 484 477 78 489 80 82 84 116 470 467 469 183 471 446 494 493 479 0 
0 321 484 477 78 489 80 82 84 479 480 51 90 91 89 87 0 
0 321 484 477 78 489 80 82 84 479 480 51 90 89 159 0 
0 321 484 477 78 489 80 82 84 479 480 51 90 91 89 87 0 
0 321 484 477 78 489 80 82 84 479 480 51 90 89 87 0 
0 321 477 78 489 80 81 478 116 470 467 469 183 471 473 446 494 493 475 84 82 484 0 
0 321 477 78 489 80 81 478 116 470 469 467 183 471 473 446 494 493 475 84 82 484 0 
0 321 484 477 78 489 80 478 116 470 469 467 183 471 473 446 494 493 475 82 84 479 0 
0 321 484 477 78 489 80 81 478 116 470 469 467 472 183 471 493 475 479 0 
0 321 484 477 78 489 80 82 84 479 480 51 90 91 89 87 0 
0 321 484 477 78 489 80 82 84 479 480 51 90 89 159 0 
0 321 477 78 489 80 82 84 479 480 51 90 89 87 483 0 
0 321 484 477 78 489 80 82 84 479 480 51 90 91 89 87 0 
0 321 484 477 78 489 80 82 84 479 480 51 90 89 87 0 
0 321 477 78 489 80 81 478 116 470 469 467 183 471 473 446 494 493 475 84 82 484 0 
0 321 484 477 78 489 80 82 478 116 470 469 467 183 471 493 475 84 479 0 
0 321 484 477 78 489 80 82 478 116 470 469 467 183 471 493 475 84 479 0 
0 321 477 78 489 80 478 116 470 467 469 472 183 471 493 475 82 84 479 0 
0 321 477 78 489 80 478 116 470 469 467 472 183 471 493 475 82 84 479 0 
0 321 477 78 489 80 478 116 470 469 467 183 471 473 439 494 493 475 84 484 0 
0 321 484 477 78 489 80 82 84 479 480 51 90 91 89 87 0 
0 321 484 477 78 489 80 82 84 479 480 51 90 89 159 0 
0 321 484 477 78 489 80 82 84 479 480 51 90 89 87 0 
0 321 484 477 78 489 80 82 84 479 480 51 90 91 89 87 0 
0 321 477 78 489 80 81 478 116 470 469 467 183 471 473 446 494 493 475 84 82 484 0 
0 321 477 78 489 80 81 478 116 470 467 469 183 471 473 446 494 493 475 84 82 484 0 
0 321 477 78 489 478 116 470 469 467 183 471 473 208 182 459 457 480 0 
0 321 484 477 78 489 80 82 84 479 480 51 90 91 89 87 0 
0 321 484 477 78 489 80 82 84 479 480 51 90 89 159 0 
0 321 484 477 78 489 80 82 84 479 480 51 90 91 89 87 0 
0 321 484 477 78 489 80 82 84 479 480 51 90 89 87 0 
0 321 477 78 489 80 478 116 470 467 469 472 183 471 493 475 84 82 484 0 
0 321 477 78 489 80 81 478 116 470 469 467 183 471 473 446 494 493 475 84 82 484 0 
0 321 477 78 489 80 81 478 116 470 467 469 183 471 473 446 494 493 475 84 82 484 0 
0 321 477 78 489 80 81 478 116 470 469 467 472 183 471 493 475 84 484 0 
0 321 484 477 78 489 80 81 478 116 470 469 467 472 183 471 493 475 479 0 
0 321 484 477 78 489 80 81 478 116 470 469 467 472 183 471 493 475 479 0 
0 321 484 477 78 489 80 82 84 479 480 51 90 91 89 87 0 
0 321 484 477 78 489 80 82 84 479 480 51 90 89 159 0 
0 484 477 78 489 80 82 84 479 480 51 90 91 89 87 0 
0 321 484 477 78 489 80 82 84 479 480 51 90 91 89 87 0 
0 321 484 477 78 489 80 82 84 479 480 51 90 89 87 0 
0 484 477 78 489 80 82 84 479 480 51 90 89 87 0 
0 321 477 78 489 80 81 478 116 470 469 467 472 183 471 493 475 484 0 
0 321 477 78 489 80 81 478 116 470 469 467 183 471 473 446 494 493 475 84 82 484 0 
0 321 477 78 489 80 81 478 116 470 467 469 183 471 473 446 494 493 475 84 82 484 0 
0 321 484 477 78 489 80 478 116 470 469 467 183 471 473 446 494 493 475 82 84 479 0 
0 321 477 78 489 80 478 116 470 467 469 472 183 471 493 475 84 82 484 0 
0 321 477 78 489 80 478 116 470 469 467 472 183 471 493 475 84 82 484 0 
0 321 484 477 78 489 80 82 84 479 480 51 90 91 89 159 0 
0 321 484 477 78 489 80 82 84 479 480 51 90 91 89 87 0 
0 321 484 477 78 489 80 82 84 479 480 51 90 89 159 0 
0 321 484 477 78 489 80 82 84 479 480 51 90 91 89 87 0 
0 321 484 477 78 489 80 82 84 479 480 51 90 89 87 0 
0 321 477 78 489 80 81 478 116 470 467 469 183 471 473 446 494 493 475 84 82 484 0 
0 321 477 78 489 80 81 478 116 470 469 467 183 471 473 446 494 493 475 84 82 484 0 
0 321 477 78 489 80 81 478 116 470 467 469 472 183 471 493 475 84 484 0 
0 321 477 78 489 80 81 478 116 470 469 467 472 183 471 493 475 84 484 0 
0 321 477 78 489 80 81 478 116 470 467 469 472 183 471 493 475 484 0 
0 321 477 78 489 80 81 478 116 470 469 467 472 183 471 493 475 484 0 
0 321 484 477 78 489 80 82 84 479 480 51 90 91 89 159 0 
0 321 484 477 78 489 80 82 84 479 480 51 90 91 89 87 0 
0 321 484 477 78 489 80 82 84 479 480 51 90 89 159 0 
0 321 484 477 78 489 80 82 84 479 480 51 90 91 89 87 0 
0 321 484 477 78 489 80 82 84 479 480 51 90 89 87 0 
0 321 477 78 489 80 478 116 470 469 467 472 183 471 493 475 84 82 484 0 
0 321 484 477 78 489 80 82 84 479 480 51 90 91 89 159 0 
0 321 484 477 78 489 80 82 84 479 480 51 90 91 89 87 0 
0 321 484 477 78 489 80 82 84 479 480 51 90 89 159 0 
0 321 484 477 78 489 80 82 84 479 480 51 90 91 89 87 0 
0 321 484 477 78 489 80 82 84 479 480 51 90 89 87 0 
0 321 477 78 489 80 81 478 116 470 469 467 183 471 473 446 494 493 475 84 82 484 0 
0 321 477 78 489 80 81 478 116 470 467 469 183 471 473 446 494 493 475 84 82 484 0 
0 321 477 78 489 80 81 478 116 470 469 467 183 471 473 446 494 493 475 84 82 484 0 
0 321 477 78 489 80 478 116 470 467 469 472 183 471 493 475 84 82 484 0 
0 321 484 477 78 489 80 82 84 479 480 51 90 91 89 159 0 
0 321 484 477 78 489 80 82 84 479 480 51 90 91 89 87 0 
0 321 484 477 78 489 80 82 84 479 480 51 90 89 159 0 
0 321 484 477 78 489 80 82 84 479 480 51 90 91 89 87 0 
0 321 484 477 78 489 80 82 84 479 480 51 90 89 87 0 
0 159 491 479 84 475 473 471 183 469 467 470 116 478 81 80 489 78 477 82 321 0 
0 159 491 479 84 82 475 473 471 183 469 467 470 116 478 81 80 489 78 477 484 321 0 
0 159 491 479 84 475 473 471 183 469 467 470 116 478 81 80 477 78 489 82 484 0 
0 159 491 479 84 475 473 471 183 467 469 470 116 478 81 80 477 78 489 82 484 0 
0 159 491 479 84 475 473 471 183 467 469 470 116 478 81 80 489 78 477 82 321 0 
0 159 491 479 84 82 475 473 471 183 467 469 470 116 478 81 80 489 78 477 484 321 0 
0 159 491 479 84 472 473 471 183 467 469 470 116 478 81 80 489 78 477 82 484 321 0 
0 159 491 479 84 472 473 471 183 469 467 470 116 478 81 80 489 78 477 82 484 321 0 
0 159 491 479 84 82 472 473 471 183 469 467 470 116 478 81 80 489 78 477 484 321 0 
0 159 491 479 84 472 473 471 183 469 467 470 116 478 81 80 477 78 489 82 484 321 0 
0 159 491 479 84 472 473 471 183 467 469 470 116 478 81 80 477 78 489 82 484 321 0 
0 159 491 479 84 82 472 473 471 183 467 469 470 116 478 81 80 489 78 477 484 321 0 
0 483 87 89 98 100 374 91 90 51 480 479 84 82 80 78 477 0 
0 483 87 89 98 100 374 102 90 51 480 479 84 82 80 78 477 321 0 
0 321 477 78 489 80 81 478 116 470 467 469 183 471 473 446 494 493 475 84 82 484 0 
0 321 477 78 489 80 81 478 116 470 469 467 183 471 473 446 494 493 475 84 82 484 0 
0 321 477 78 489 80 478 116 470 469 467 472 183 471 493 475 84 82 484 0 
0 321 477 78 489 80 478 116 470 467 469 472 183 471 493 475 84 82 484 0 
0 321 484 477 78 489 80 82 84 479 480 51 90 91 89 159 0 
0 321 484 477 78 489 80 82 84 479 480 51 90 89 159 0 
0 484 477 78 489 80 82 84 479 480 51 90 91 89 87 0 
0 321 484 477 78 489 80 82 84 479 480 51 90 91 89 87 0 
0 321 484 477 78 489 80 82 84 479 480 51 90 89 87 0 
0 484 477 78 489 80 82 84 479 480 51 90 89 87 0 
0 321 477 78 489 80 81 478 116 470 469 467 183 471 473 446 494 493 475 84 82 484 0 
0 321 477 78 489 80 81 478 116 470 467 469 183 471 473 446 494 493 475 84 82 484 0 
0 321 477 78 489 80 81 478 116 470 469 467 472 183 471 493 475 84 484 0 
0 321 477 78 489 80 81 478 116 470 467 469 472 183 471 493 475 84 484 0 
0 321 477 78 489 80 81 478 116 470 469 467 472 183 471 493 475 484 0 
0 321 477 78 489 80 81 478 116 470 467 469 472 183 471 493 475 484 0 
0 321 484 477 78 489 80 82 84 479 480 51 90 91 89 159 0 
0 321 484 477 78 489 80 82 84 479 480 51 90 91 89 87 0 
0 321 484 477 78 489 80 82 84 479 480 51 90 89 159 0 
0 321 484 477 78 489 80 82 84 479 480 51 90 91 89 87 0 
0 321 484 477 78 489 80 82 84 479 480 51 90 89 87 0 
0 321 477 78 489 80 81 478 116 470 469 467 183 471 473 446 494 493 475 84 82 484 0 
0 321 477 78 489 80 81 478 116 470 467 469 183 471 473 446 494 493 475 84 82 484 0 
0 321 477 78 489 80 81 478 116 470 467 469 472 183 471 493 475 84 484 0 
0 321 477 78 489 80 81 478 116 470 467 469 472 183 471 493 475 484 0 
0 321 484 477 78 489 80 82 84 479 480 51 90 91 89 159 0 
0 321 484 477 78 489 80 82 84 479 480 51 90 89 159 0 
0 321 484 477 78 489 80 82 84 479 480 51 90 91 89 87 0 
0 321 484 477 78 489 80 82 84 479 480 51 90 89 87 0 
0 321 477 78 489 80 81 478 116 470 467 469 183 471 473 446 494 493 475 84 82 484 0 
0 321 477 78 489 80 81 478 116 470 469 467 183 471 473 446 494 493 475 84 82 484 0 
0 321 484 477 78 489 80 478 116 470 469 467 183 471 473 446 494 493 475 82 84 479 0 
0 321 484 477 78 489 80 478 116 470 467 469 183 471 473 446 494 493 475 82 84 479 0 
0 321 484 477 78 489 80 82 84 479 480 51 90 89 159 0 
0 321 484 477 78 489 80 82 84 479 480 51 90 91 89 87 0 
0 321 484 477 78 489 80 82 84 479 480 51 90 89 87 0 
0 321 477 78 489 80 478 116 470 467 469 472 183 471 493 475 84 82 484 0 
0 321 484 84 82 489 78 477 80 478 116 470 467 469 472 183 471 493 479 0 
0 321 477 78 489 80 81 478 116 470 469 467 183 471 473 475 82 84 479 486 484 0 
0 321 484 477 78 489 80 81 478 116 470 469 467 183 471 475 82 84 479 159 0 
0 159 491 479 84 82 475 473 471 183 469 467 470 116 478 81 80 489 78 477 484 321 0 
0 159 491 479 84 475 473 471 183 467 469 470 116 478 81 80 477 78 489 82 484 0 
0 159 491 479 84 475 473 471 183 467 469 470 116 478 81 80 489 78 477 82 321 0 
0 159 491 479 84 475 473 471 183 469 467 470 116 478 81 80 489 78 477 82 321 0 
0 159 491 479 84 475 473 471 183 469 467 470 116 478 81 80 477 78 489 82 484 0 
0 321 484 477 78 489 80 81 478 116 470 469 467 183 471 446 493 475 82 84 479 0 
0 321 484 477 78 489 80 81 478 116 470 467 469 183 471 446 493 475 82 84 479 0 
0 321 484 477 78 489 80 81 478 116 470 467 469 472 183 471 493 475 479 0 
0 321 484 477 78 489 80 82 84 479 480 51 90 89 159 0 
0 483 87 89 98 100 374 102 90 51 480 479 84 82 80 78 477 321 0 
0 321 484 477 78 489 80 82 84 479 480 51 90 91 89 87 0 
0 321 484 477 78 489 80 82 84 479 480 51 90 89 87 0 
